;; sequence(s): A156986
;; terms: 1 1 2 3 384 2027025 10409396852733332453861621760000
;; small program: loop(loop(loop(x * y, y, 1) div x, x, 1), 2, x)
;; fast program: loop(loop2(x * y, 2 + y, x div 2, 1, 2 + (x mod 2)), 2, x)
(set-logic UFNIA)
(define-fun divf ((a Int) (b Int)) Int (ite (< 0 b) (div a b) (div (- a) (- b))))
(define-fun modf ((a Int) (b Int)) Int (ite (< 0 b) (mod a b) (- (mod (- a) (- b)))))
(declare-fun f2 (Int Int) Int)
(declare-fun g2 (Int Int) Int)
(declare-fun h2 () Int)
(declare-fun u2 (Int Int) Int)
(declare-fun v2 (Int Int) Int)
(declare-fun f1 (Int Int) Int)
(declare-fun g1 (Int) Int)
(declare-fun h1 () Int)
(declare-fun u1 (Int Int) Int)
(declare-fun v1 (Int) Int)
(declare-fun f0 (Int) Int)
(declare-fun g0 () Int)
(declare-fun h0 (Int) Int)
(declare-fun u0 (Int Int) Int)
(declare-fun v0 (Int) Int)
(declare-fun small (Int) Int)
(declare-fun f4 (Int Int) Int)
(declare-fun g4 (Int Int) Int)
(declare-fun h4 (Int) Int)
(declare-fun i4 () Int)
(declare-fun j4 (Int) Int)
(declare-fun u4 (Int Int Int) Int)
(declare-fun v4 (Int Int Int) Int)
(declare-fun w4 (Int) Int)
(declare-fun f3 (Int) Int)
(declare-fun g3 () Int)
(declare-fun h3 (Int) Int)
(declare-fun u3 (Int Int) Int)
(declare-fun v3 (Int) Int)
(declare-fun fast (Int) Int)
(assert (forall ((x Int) (y Int)) (= (f2 x y) (* x y))))
(assert (forall ((x Int) (y Int)) (= (g2 x y) y)))
(assert (= h2 1))
(assert (forall ((x Int) (y Int)) (= (u2 x y) (ite (<= x 0) y (f2 (u2 (- x 1) y) x)))))
(assert (forall ((x Int) (y Int)) (= (v2 x y) (u2 (g2 x y) h2))))
(assert (forall ((x Int) (y Int)) (= (f1 x y) (divf (v2 x y) x))))
(assert (forall ((x Int)) (= (g1 x) x)))
(assert (= h1 1))
(assert (forall ((x Int) (y Int)) (= (u1 x y) (ite (<= x 0) y (f1 (u1 (- x 1) y) x)))))
(assert (forall ((x Int)) (= (v1 x) (u1 (g1 x) h1))))
(assert (forall ((x Int)) (= (f0 x) (v1 x))))
(assert (= g0 2))
(assert (forall ((x Int)) (= (h0 x) x)))
(assert (forall ((x Int) (y Int)) (= (u0 x y) (ite (<= x 0) y (f0 (u0 (- x 1) y))))))
(assert (forall ((x Int)) (= (v0 x) (u0 g0 (h0 x)))))
(assert (forall ((x Int)) (= (small x) (v0 x))))
(assert (forall ((x Int) (y Int)) (= (f4 x y) (* x y))))
(assert (forall ((x Int) (y Int)) (= (g4 x y) (+ 2 y))))
(assert (forall ((x Int)) (= (h4 x) (divf x 2))))
(assert (= i4 1))
(assert (forall ((x Int)) (= (j4 x) (+ 2 (modf x 2)))))
(assert (forall ((x Int) (y Int) (z Int)) (= (u4 x y z) (ite (<= x 0) y (f4 (u4 (- x 1) y z) (v4 (- x 1) y z))))))
(assert (forall ((x Int) (y Int) (z Int)) (= (v4 x y z) (ite (<= x 0) z (g4 (u4 (- x 1) y z) (v4 (- x 1) y z))))))
(assert (forall ((x Int)) (= (w4 x) (u4 (h4 x) i4 (j4 x)))))
(assert (forall ((x Int)) (= (f3 x) (w4 x))))
(assert (= g3 2))
(assert (forall ((x Int)) (= (h3 x) x)))
(assert (forall ((x Int) (y Int)) (= (u3 x y) (ite (<= x 0) y (f3 (u3 (- x 1) y))))))
(assert (forall ((x Int)) (= (v3 x) (u3 g3 (h3 x)))))
(assert (forall ((x Int)) (= (fast x) (v3 x))))
(assert (exists ((c Int)) (and (>= c 0) (not (= (small c) (fast c))))))
(check-sat)
